(declare-fun b181 () (_ FloatingPoint 8 24))
(declare-fun b45 () (_ FloatingPoint 8 24))
(declare-fun b36 () (_ FloatingPoint 8 24))
(declare-fun b188 () (_ FloatingPoint 8 24))
(declare-fun b129 () (_ FloatingPoint 8 24))
(declare-fun b55 () (_ FloatingPoint 11 53))
(declare-fun b77 () (_ FloatingPoint 11 53))
(declare-fun b202 () (_ FloatingPoint 8 24))
(declare-fun b68 () (_ FloatingPoint 11 53))
(declare-fun b186 () (_ FloatingPoint 8 24))
(declare-fun b126 () (_ FloatingPoint 8 24))
(declare-fun b38 () (_ FloatingPoint 8 24))
(declare-fun b197 () (_ FloatingPoint 8 24))
(assert (let ((.def_86 ((_ to_fp 11 53) RNE b197)))
(let ((.def_87 (fp.leq b68 .def_86)))
(let ((.def_88 (not .def_87)))
(let ((.def_10 (fp.mul RNE b36 b36)))
(let ((.def_11 (fp.neg .def_10)))
(let ((.def_12 (fp.mul RNE b36 .def_11)))
(let ((.def_13 ((_ to_fp 11 53) RNE .def_12)))
(let ((.def_15 (fp.div RNE .def_13 b55)))
(let ((.def_16 ((_ to_fp 8 24) RNE .def_15)))
(let ((.def_83 (fp.neg .def_16)))
(let ((.def_84 (= b202 .def_83)))
(let ((.def_80 (fp.leq b38 .def_16)))
(let ((.def_81 (not .def_80)))
(let ((.def_20 (fp.mul RNE .def_11 .def_16)))
(let ((.def_21 ((_ to_fp 11 53) RNE .def_20)))
(let ((.def_23 (fp.div RNE .def_21 b77)))
(let ((.def_24 ((_ to_fp 8 24) RNE .def_23)))
(let ((.def_76 (fp.neg .def_24)))
(let ((.def_77 (= b197 .def_76)))
(let ((.def_73 (fp.leq b38 .def_24)))
(let ((.def_74 (not .def_73)))
(let ((.def_70 (fp.leq b36 b129)))
(let ((.def_68 (fp.leq b126 b36)))
(let ((.def_65 (fp.leq b181 b129)))
(let ((.def_61 (fp.leq b188 b45)))
(let ((.def_62 (not .def_61)))
(let ((.def_28 (fp.add RNE b36 .def_16)))
(let ((.def_58 (= .def_28 b186)))
(let ((.def_53 ((_ to_fp 11 53) RNE b202)))
(let ((.def_55 (fp.leq b68 .def_53)))
(let ((.def_56 (not .def_55)))
(let ((.def_49 (fp.neg b186)))
(let ((.def_50 (= b188 .def_49)))
(let ((.def_46 (fp.leq b38 b186)))
(let ((.def_47 (not .def_46)))
(let ((.def_42 (fp.neg b36)))
(let ((.def_43 (= b181 .def_42)))
(let ((.def_40 (fp.leq b38 b36)))
(let ((.def_41 (not .def_40)))
(let ((.def_44 (and .def_41 .def_43)))
(let ((.def_37 (= b36 b181)))
(let ((.def_38 (not .def_37)))
(let ((.def_45 (and .def_38 .def_44)))
(let ((.def_48 (and .def_45 .def_47)))
(let ((.def_51 (and .def_48 .def_50)))
(let ((.def_34 (= b186 b188)))
(let ((.def_35 (not .def_34)))
(let ((.def_52 (and .def_35 .def_51)))
(let ((.def_57 (and .def_52 .def_56)))
(let ((.def_59 (and .def_57 .def_58)))
(let ((.def_63 (and .def_59 .def_62)))
(let ((.def_66 (and .def_63 .def_65)))
(let ((.def_69 (and .def_66 .def_68)))
(let ((.def_71 (and .def_69 .def_70)))
(let ((.def_29 (fp.add RNE .def_24 .def_28)))
(let ((.def_31 (= .def_29 b186)))
(let ((.def_32 (not .def_31)))
(let ((.def_72 (and .def_32 .def_71)))
(let ((.def_75 (and .def_72 .def_74)))
(let ((.def_78 (and .def_75 .def_77)))
(let ((.def_26 (= .def_24 b197)))
(let ((.def_27 (not .def_26)))
(let ((.def_79 (and .def_27 .def_78)))
(let ((.def_82 (and .def_79 .def_81)))
(let ((.def_85 (and .def_82 .def_84)))
(let ((.def_89 (and .def_85 .def_88)))
(let ((.def_18 (= .def_16 b202)))
(let ((.def_19 (not .def_18)))
(let ((.def_90 (and .def_19 .def_89)))
.def_90))))))))))))))))))))))))))))))))))))))))))))))))))))))))))))))))))))))
(check-sat)
